container_length = 4500;
container_width = 3000;
container_height =  1650;
n = 7;
boxes = [|400, 375, 200, 16
         |400, 250, 250, 23
         |300, 300, 200, 17
         |500, 500, 225, 9
         |800, 400, 275, 8
         |600, 200, 275, 17
         |900, 200, 275, 10|];
